90 4005
1 2 107
1 3 268
1 4 249
1 5 234
1 6 156
1 7 138
1 8 208
1 9 61
1 10 154
1 11 25
1 12 32
1 13 260
1 14 138
1 15 138
1 16 0
1 17 84
1 18 133
1 19 37
1 20 120
1 21 101
1 22 41
1 23 232
1 24 231
1 25 67
1 26 207
1 27 173
1 28 248
1 29 251
1 30 159
1 31 265
1 32 187
1 33 27
1 34 218
1 35 246
1 36 257
1 37 104
1 38 191
1 39 45
1 40 239
1 41 30
1 42 65
1 43 57
1 44 75
1 45 205
1 46 269
1 47 169
1 48 127
1 49 13
1 50 61
1 51 238
1 52 92
1 53 238
1 54 9
1 55 178
1 56 144
1 57 52
1 58 257
1 59 139
1 60 12
1 61 48
1 62 103
1 63 213
1 64 52
1 65 48
1 66 180
1 67 99
1 68 86
1 69 268
1 70 50
1 71 59
1 72 249
1 73 76
1 74 191
1 75 4
1 76 184
1 77 123
1 78 101
1 79 156
1 80 65
1 81 207
1 82 34
1 83 256
1 84 155
1 85 67
1 86 19
1 87 251
1 88 19
1 89 219
1 90 206
2 3 202
2 4 78
2 5 232
2 6 255
2 7 157
2 8 162
2 9 36
2 10 22
2 11 73
2 12 30
2 13 92
2 14 149
2 15 210
2 16 61
2 17 2
2 18 195
2 19 83
2 20 164
2 21 240
2 22 36
2 23 181
2 24 9
2 25 19
2 26 28
2 27 195
2 28 109
2 29 241
2 30 89
2 31 122
2 32 37
2 33 240
2 34 50
2 35 93
2 36 118
2 37 263
2 38 128
2 39 84
2 40 260
2 41 78
2 42 235
2 43 209
2 44 247
2 45 238
2 46 199
2 47 159
2 48 95
2 49 108
2 50 54
2 51 86
2 52 126
2 53 129
2 54 221
2 55 177
2 56 48
2 57 266
2 58 89
2 59 159
2 60 7
2 61 126
2 62 233
2 63 26
2 64 118
2 65 47
2 66 204
2 67 134
2 68 128
2 69 43
2 70 18
2 71 162
2 72 199
2 73 164
2 74 162
2 75 226
2 76 199
2 77 105
2 78 253
2 79 201
2 80 96
2 81 204
2 82 175
2 83 239
2 84 152
2 85 147
2 86 211
2 87 15
2 88 167
2 89 186
2 90 169
3 4 157
3 5 144
3 6 182
3 7 168
3 8 171
3 9 251
3 10 224
3 11 204
3 12 167
3 13 260
3 14 267
3 15 7
3 16 161
3 17 29
3 18 235
3 19 243
3 20 139
3 21 19
3 22 178
3 23 192
3 24 87
3 25 8
3 26 128
3 27 192
3 28 74
3 29 250
3 30 182
3 31 56
3 32 227
3 33 253
3 34 175
3 35 244
3 36 26
3 37 18
3 38 239
3 39 228
3 40 24
3 41 239
3 42 101
3 43 207
3 44 119
3 45 64
3 46 144
3 47 223
3 48 222
3 49 145
3 50 17
3 51 184
3 52 28
3 53 152
3 54 109
3 55 174
3 56 53
3 57 211
3 58 105
3 59 75
3 60 17
3 61 267
3 62 120
3 63 158
3 64 267
3 65 124
3 66 171
3 67 91
3 68 152
3 69 133
3 70 110
3 71 225
3 72 190
3 73 154
3 74 12
3 75 97
3 76 7
3 77 131
3 78 214
3 79 203
3 80 40
3 81 46
3 82 259
3 83 31
3 84 191
3 85 79
3 86 61
3 87 136
3 88 184
3 89 85
3 90 194
4 5 170
4 6 22
4 7 251
4 8 77
4 9 19
4 10 215
4 11 250
4 12 96
4 13 74
4 14 16
4 15 210
4 16 269
4 17 3
4 18 215
4 19 236
4 20 190
4 21 245
4 22 262
4 23 123
4 24 207
4 25 11
4 26 252
4 27 45
4 28 130
4 29 3
4 30 86
4 31 101
4 32 215
4 33 145
4 34 79
4 35 255
4 36 23
4 37 231
4 38 27
4 39 84
4 40 139
4 41 245
4 42 125
4 43 202
4 44 35
4 45 91
4 46 221
4 47 219
4 48 101
4 49 76
4 50 93
4 51 4
4 52 0
4 53 45
4 54 82
4 55 113
4 56 223
4 57 143
4 58 241
4 59 230
4 60 218
4 61 98
4 62 230
4 63 165
4 64 205
4 65 237
4 66 181
4 67 190
4 68 174
4 69 60
4 70 18
4 71 78
4 72 143
4 73 238
4 74 69
4 75 91
4 76 200
4 77 237
4 78 34
4 79 236
4 80 59
4 81 127
4 82 246
4 83 6
4 84 17
4 85 258
4 86 93
4 87 67
4 88 227
4 89 23
4 90 138
5 6 80
5 7 247
5 8 171
5 9 19
5 10 65
5 11 15
5 12 39
5 13 21
5 14 130
5 15 7
5 16 141
5 17 138
5 18 135
5 19 194
5 20 127
5 21 77
5 22 203
5 23 16
5 24 26
5 25 145
5 26 177
5 27 30
5 28 73
5 29 15
5 30 168
5 31 59
5 32 153
5 33 43
5 34 170
5 35 230
5 36 190
5 37 4
5 38 11
5 39 222
5 40 21
5 41 209
5 42 113
5 43 213
5 44 259
5 45 45
5 46 97
5 47 105
5 48 121
5 49 37
5 50 70
5 51 174
5 52 15
5 53 32
5 54 229
5 55 21
5 56 46
5 57 14
5 58 232
5 59 205
5 60 246
5 61 98
5 62 199
5 63 185
5 64 50
5 65 177
5 66 8
5 67 182
5 68 39
5 69 255
5 70 253
5 71 11
5 72 67
5 73 213
5 74 158
5 75 16
5 76 0
5 77 98
5 78 178
5 79 46
5 80 74
5 81 86
5 82 238
5 83 254
5 84 141
5 85 28
5 86 63
5 87 109
5 88 11
5 89 74
5 90 88
6 7 216
6 8 92
6 9 250
6 10 118
6 11 174
6 12 2
6 13 233
6 14 73
6 15 52
6 16 185
6 17 47
6 18 220
6 19 269
6 20 5
6 21 189
6 22 20
6 23 146
6 24 246
6 25 234
6 26 233
6 27 190
6 28 262
6 29 260
6 30 188
6 31 254
6 32 215
6 33 204
6 34 200
6 35 90
6 36 74
6 37 266
6 38 138
6 39 105
6 40 107
6 41 244
6 42 111
6 43 167
6 44 103
6 45 190
6 46 163
6 47 267
6 48 72
6 49 162
6 50 213
6 51 64
6 52 107
6 53 188
6 54 57
6 55 230
6 56 63
6 57 103
6 58 123
6 59 47
6 60 120
6 61 156
6 62 220
6 63 254
6 64 67
6 65 159
6 66 29
6 67 52
6 68 241
6 69 145
6 70 152
6 71 91
6 72 47
6 73 135
6 74 208
6 75 83
6 76 63
6 77 198
6 78 169
6 79 211
6 80 48
6 81 85
6 82 68
6 83 168
6 84 8
6 85 74
6 86 266
6 87 179
6 88 81
6 89 86
6 90 225
7 8 12
7 9 118
7 10 67
7 11 159
7 12 68
7 13 160
7 14 127
7 15 27
7 16 142
7 17 239
7 18 266
7 19 182
7 20 160
7 21 266
7 22 192
7 23 241
7 24 66
7 25 150
7 26 95
7 27 64
7 28 171
7 29 49
7 30 99
7 31 116
7 32 182
7 33 140
7 34 162
7 35 84
7 36 263
7 37 89
7 38 236
7 39 10
7 40 63
7 41 198
7 42 21
7 43 230
7 44 73
7 45 109
7 46 191
7 47 212
7 48 114
7 49 149
7 50 60
7 51 48
7 52 21
7 53 58
7 54 90
7 55 243
7 56 69
7 57 82
7 58 103
7 59 175
7 60 73
7 61 14
7 62 66
7 63 28
7 64 56
7 65 126
7 66 227
7 67 170
7 68 10
7 69 242
7 70 1
7 71 48
7 72 36
7 73 165
7 74 42
7 75 0
7 76 152
7 77 2
7 78 242
7 79 143
7 80 66
7 81 5
7 82 131
7 83 31
7 84 0
7 85 265
7 86 81
7 87 58
7 88 234
7 89 224
7 90 71
8 9 7
8 10 190
8 11 89
8 12 124
8 13 222
8 14 107
8 15 256
8 16 178
8 17 36
8 18 242
8 19 143
8 20 177
8 21 78
8 22 166
8 23 101
8 24 158
8 25 197
8 26 41
8 27 104
8 28 259
8 29 120
8 30 112
8 31 256
8 32 190
8 33 229
8 34 223
8 35 138
8 36 17
8 37 52
8 38 75
8 39 179
8 40 211
8 41 208
8 42 52
8 43 214
8 44 222
8 45 187
8 46 31
8 47 102
8 48 123
8 49 22
8 50 176
8 51 77
8 52 39
8 53 128
8 54 88
8 55 141
8 56 169
8 57 26
8 58 60
8 59 140
8 60 228
8 61 55
8 62 5
8 63 183
8 64 175
8 65 239
8 66 20
8 67 41
8 68 255
8 69 34
8 70 4
8 71 160
8 72 221
8 73 223
8 74 15
8 75 86
8 76 180
8 77 167
8 78 66
8 79 84
8 80 67
8 81 175
8 82 59
8 83 76
8 84 57
8 85 27
8 86 73
8 87 261
8 88 58
8 89 197
8 90 114
9 10 2
9 11 254
9 12 164
9 13 96
9 14 187
9 15 178
9 16 231
9 17 262
9 18 99
9 19 60
9 20 86
9 21 111
9 22 179
9 23 50
9 24 135
9 25 260
9 26 123
9 27 96
9 28 150
9 29 26
9 30 69
9 31 36
9 32 136
9 33 60
9 34 116
9 35 53
9 36 247
9 37 65
9 38 133
9 39 117
9 40 147
9 41 142
9 42 171
9 43 172
9 44 200
9 45 70
9 46 234
9 47 110
9 48 219
9 49 216
9 50 145
9 51 163
9 52 39
9 53 114
9 54 52
9 55 32
9 56 186
9 57 219
9 58 113
9 59 96
9 60 126
9 61 262
9 62 235
9 63 181
9 64 6
9 65 27
9 66 78
9 67 17
9 68 250
9 69 134
9 70 185
9 71 7
9 72 46
9 73 49
9 74 194
9 75 180
9 76 172
9 77 210
9 78 113
9 79 3
9 80 67
9 81 48
9 82 250
9 83 139
9 84 121
9 85 202
9 86 182
9 87 56
9 88 3
9 89 244
9 90 239
10 11 188
10 12 130
10 13 86
10 14 47
10 15 94
10 16 244
10 17 43
10 18 10
10 19 154
10 20 237
10 21 53
10 22 37
10 23 217
10 24 254
10 25 190
10 26 43
10 27 124
10 28 172
10 29 180
10 30 218
10 31 153
10 32 20
10 33 212
10 34 132
10 35 163
10 36 186
10 37 32
10 38 141
10 39 237
10 40 246
10 41 66
10 42 152
10 43 267
10 44 90
10 45 178
10 46 162
10 47 59
10 48 205
10 49 137
10 50 47
10 51 236
10 52 29
10 53 176
10 54 35
10 55 80
10 56 65
10 57 154
10 58 245
10 59 11
10 60 21
10 61 111
10 62 227
10 63 70
10 64 190
10 65 164
10 66 122
10 67 4
10 68 10
10 69 134
10 70 166
10 71 139
10 72 42
10 73 208
10 74 85
10 75 58
10 76 40
10 77 56
10 78 162
10 79 58
10 80 4
10 81 189
10 82 122
10 83 58
10 84 44
10 85 264
10 86 82
10 87 193
10 88 207
10 89 104
10 90 79
11 12 15
11 13 92
11 14 174
11 15 87
11 16 181
11 17 6
11 18 219
11 19 1
11 20 245
11 21 77
11 22 123
11 23 205
11 24 42
11 25 210
11 26 69
11 27 84
11 28 175
11 29 249
11 30 68
11 31 72
11 32 136
11 33 182
11 34 161
11 35 48
11 36 95
11 37 54
11 38 186
11 39 97
11 40 132
11 41 196
11 42 48
11 43 212
11 44 210
11 45 185
11 46 193
11 47 169
11 48 90
11 49 72
11 50 67
11 51 104
11 52 231
11 53 242
11 54 21
11 55 108
11 56 257
11 57 13
11 58 136
11 59 163
11 60 106
11 61 86
11 62 26
11 63 165
11 64 140
11 65 248
11 66 82
11 67 73
11 68 85
11 69 168
11 70 25
11 71 10
11 72 74
11 73 87
11 74 146
11 75 44
11 76 267
11 77 268
11 78 57
11 79 155
11 80 59
11 81 120
11 82 125
11 83 145
11 84 260
11 85 223
11 86 159
11 87 125
11 88 43
11 89 243
11 90 253
12 13 267
12 14 99
12 15 219
12 16 59
12 17 102
12 18 110
12 19 192
12 20 251
12 21 50
12 22 217
12 23 88
12 24 236
12 25 207
12 26 88
12 27 6
12 28 143
12 29 198
12 30 59
12 31 85
12 32 111
12 33 7
12 34 143
12 35 213
12 36 149
12 37 49
12 38 69
12 39 97
12 40 33
12 41 194
12 42 84
12 43 174
12 44 104
12 45 184
12 46 7
12 47 25
12 48 104
12 49 60
12 50 6
12 51 223
12 52 183
12 53 34
12 54 242
12 55 75
12 56 17
12 57 92
12 58 242
12 59 118
12 60 48
12 61 50
12 62 228
12 63 47
12 64 150
12 65 153
12 66 156
12 67 120
12 68 7
12 69 68
12 70 83
12 71 214
12 72 149
12 73 241
12 74 29
12 75 89
12 76 242
12 77 174
12 78 131
12 79 18
12 80 122
12 81 5
12 82 21
12 83 237
12 84 255
12 85 144
12 86 135
12 87 63
12 88 239
12 89 140
12 90 121
13 14 35
13 15 245
13 16 241
13 17 231
13 18 233
13 19 13
13 20 152
13 21 229
13 22 90
13 23 258
13 24 34
13 25 44
13 26 21
13 27 265
13 28 207
13 29 61
13 30 173
13 31 126
13 32 210
13 33 149
13 34 189
13 35 202
13 36 168
13 37 83
13 38 174
13 39 253
13 40 239
13 41 10
13 42 71
13 43 12
13 44 77
13 45 210
13 46 53
13 47 263
13 48 188
13 49 21
13 50 245
13 51 161
13 52 94
13 53 21
13 54 208
13 55 189
13 56 171
13 57 22
13 58 171
13 59 77
13 60 254
13 61 142
13 62 2
13 63 97
13 64 88
13 65 245
13 66 118
13 67 189
13 68 167
13 69 243
13 70 76
13 71 194
13 72 235
13 73 197
13 74 69
13 75 74
13 76 139
13 77 58
13 78 67
13 79 100
13 80 228
13 81 147
13 82 227
13 83 32
13 84 263
13 85 183
13 86 225
13 87 23
13 88 80
13 89 147
13 90 115
14 15 267
14 16 44
14 17 128
14 18 23
14 19 44
14 20 186
14 21 92
14 22 210
14 23 156
14 24 255
14 25 82
14 26 172
14 27 110
14 28 174
14 29 164
14 30 27
14 31 79
14 32 206
14 33 48
14 34 154
14 35 255
14 36 239
14 37 90
14 38 233
14 39 127
14 40 198
14 41 126
14 42 249
14 43 96
14 44 19
14 45 92
14 46 158
14 47 94
14 48 269
14 49 255
14 50 43
14 51 177
14 52 260
14 53 2
14 54 185
14 55 46
14 56 199
14 57 40
14 58 182
14 59 167
14 60 47
14 61 250
14 62 261
14 63 160
14 64 34
14 65 53
14 66 55
14 67 4
14 68 38
14 69 173
14 70 231
14 71 90
14 72 226
14 73 48
14 74 263
14 75 175
14 76 72
14 77 65
14 78 89
14 79 119
14 80 128
14 81 29
14 82 57
14 83 159
14 84 76
14 85 258
14 86 173
14 87 126
14 88 230
14 89 227
14 90 256
15 16 182
15 17 116
15 18 7
15 19 61
15 20 97
15 21 215
15 22 114
15 23 89
15 24 186
15 25 114
15 26 145
15 27 214
15 28 141
15 29 2
15 30 66
15 31 239
15 32 122
15 33 117
15 34 179
15 35 66
15 36 245
15 37 127
15 38 238
15 39 102
15 40 36
15 41 15
15 42 201
15 43 241
15 44 197
15 45 25
15 46 49
15 47 92
15 48 148
15 49 59
15 50 80
15 51 174
15 52 186
15 53 236
15 54 40
15 55 22
15 56 168
15 57 154
15 58 107
15 59 75
15 60 263
15 61 16
15 62 212
15 63 214
15 64 158
15 65 42
15 66 266
15 67 176
15 68 227
15 69 68
15 70 156
15 71 140
15 72 79
15 73 0
15 74 76
15 75 68
15 76 197
15 77 198
15 78 129
15 79 89
15 80 206
15 81 75
15 82 108
15 83 195
15 84 23
15 85 202
15 86 156
15 87 112
15 88 192
15 89 180
15 90 126
16 17 52
16 18 223
16 19 188
16 20 120
16 21 165
16 22 230
16 23 179
16 24 35
16 25 261
16 26 148
16 27 22
16 28 218
16 29 133
16 30 188
16 31 219
16 32 49
16 33 147
16 34 100
16 35 56
16 36 28
16 37 245
16 38 4
16 39 128
16 40 214
16 41 191
16 42 61
16 43 214
16 44 127
16 45 103
16 46 33
16 47 223
16 48 245
16 49 26
16 50 88
16 51 88
16 52 55
16 53 174
16 54 54
16 55 124
16 56 110
16 57 210
16 58 113
16 59 100
16 60 246
16 61 10
16 62 110
16 63 37
16 64 179
16 65 246
16 66 133
16 67 87
16 68 46
16 69 143
16 70 59
16 71 141
16 72 262
16 73 187
16 74 215
16 75 223
16 76 58
16 77 255
16 78 159
16 79 168
16 80 195
16 81 85
16 82 263
16 83 106
16 84 241
16 85 216
16 86 60
16 87 34
16 88 148
16 89 46
16 90 108
17 18 78
17 19 46
17 20 153
17 21 132
17 22 95
17 23 11
17 24 187
17 25 41
17 26 140
17 27 258
17 28 55
17 29 25
17 30 145
17 31 142
17 32 138
17 33 226
17 34 38
17 35 179
17 36 53
17 37 175
17 38 154
17 39 117
17 40 217
17 41 89
17 42 1
17 43 105
17 44 253
17 45 173
17 46 55
17 47 160
17 48 118
17 49 172
17 50 83
17 51 251
17 52 110
17 53 225
17 54 169
17 55 80
17 56 251
17 57 42
17 58 40
17 59 61
17 60 122
17 61 66
17 62 76
17 63 184
17 64 267
17 65 30
17 66 108
17 67 97
17 68 63
17 69 195
17 70 121
17 71 110
17 72 90
17 73 156
17 74 157
17 75 188
17 76 128
17 77 38
17 78 107
17 79 121
17 80 139
17 81 106
17 82 267
17 83 171
17 84 217
17 85 90
17 86 128
17 87 74
17 88 7
17 89 144
17 90 131
18 19 171
18 20 16
18 21 34
18 22 160
18 23 231
18 24 237
18 25 37
18 26 175
18 27 232
18 28 150
18 29 162
18 30 63
18 31 242
18 32 80
18 33 209
18 34 41
18 35 69
18 36 1
18 37 193
18 38 40
18 39 107
18 40 230
18 41 167
18 42 268
18 43 98
18 44 234
18 45 82
18 46 233
18 47 142
18 48 68
18 49 174
18 50 179
18 51 69
18 52 17
18 53 113
18 54 269
18 55 138
18 56 211
18 57 186
18 58 219
18 59 93
18 60 199
18 61 197
18 62 165
18 63 13
18 64 113
18 65 23
18 66 110
18 67 144
18 68 183
18 69 129
18 70 241
18 71 74
18 72 71
18 73 170
18 74 73
18 75 176
18 76 60
18 77 141
18 78 96
18 79 83
18 80 115
18 81 102
18 82 249
18 83 222
18 84 90
18 85 89
18 86 103
18 87 100
18 88 259
18 89 2
18 90 68
19 20 131
19 21 109
19 22 140
19 23 199
19 24 153
19 25 31
19 26 69
19 27 35
19 28 75
19 29 201
19 30 66
19 31 4
19 32 177
19 33 99
19 34 27
19 35 16
19 36 67
19 37 171
19 38 94
19 39 105
19 40 74
19 41 120
19 42 37
19 43 69
19 44 149
19 45 104
19 46 136
19 47 140
19 48 200
19 49 104
19 50 242
19 51 71
19 52 128
19 53 25
19 54 175
19 55 25
19 56 169
19 57 72
19 58 65
19 59 118
19 60 144
19 61 33
19 62 103
19 63 230
19 64 236
19 65 29
19 66 47
19 67 4
19 68 126
19 69 250
19 70 14
19 71 168
19 72 243
19 73 5
19 74 146
19 75 261
19 76 34
19 77 107
19 78 96
19 79 224
19 80 187
19 81 203
19 82 190
19 83 94
19 84 78
19 85 263
19 86 200
19 87 269
19 88 182
19 89 208
19 90 12
20 21 185
20 22 224
20 23 42
20 24 95
20 25 256
20 26 265
20 27 148
20 28 189
20 29 204
20 30 46
20 31 88
20 32 7
20 33 15
20 34 45
20 35 156
20 36 95
20 37 32
20 38 237
20 39 224
20 40 188
20 41 9
20 42 200
20 43 182
20 44 230
20 45 184
20 46 13
20 47 149
20 48 126
20 49 110
20 50 269
20 51 250
20 52 32
20 53 91
20 54 120
20 55 18
20 56 88
20 57 267
20 58 231
20 59 35
20 60 259
20 61 169
20 62 197
20 63 208
20 64 221
20 65 171
20 66 203
20 67 123
20 68 240
20 69 15
20 70 34
20 71 124
20 72 61
20 73 93
20 74 192
20 75 106
20 76 130
20 77 7
20 78 96
20 79 136
20 80 126
20 81 6
20 82 266
20 83 40
20 84 242
20 85 218
20 86 187
20 87 134
20 88 219
20 89 8
20 90 115
21 22 61
21 23 72
21 24 84
21 25 160
21 26 87
21 27 44
21 28 28
21 29 67
21 30 229
21 31 69
21 32 250
21 33 146
21 34 234
21 35 228
21 36 265
21 37 165
21 38 22
21 39 261
21 40 93
21 41 154
21 42 222
21 43 36
21 44 7
21 45 85
21 46 29
21 47 109
21 48 165
21 49 140
21 50 34
21 51 66
21 52 133
21 53 170
21 54 60
21 55 147
21 56 200
21 57 185
21 58 31
21 59 203
21 60 91
21 61 27
21 62 57
21 63 175
21 64 139
21 65 146
21 66 224
21 67 150
21 68 30
21 69 112
21 70 179
21 71 228
21 72 53
21 73 51
21 74 97
21 75 186
21 76 137
21 77 216
21 78 19
21 79 188
21 80 252
21 81 45
21 82 95
21 83 28
21 84 49
21 85 115
21 86 91
21 87 75
21 88 112
21 89 191
21 90 249
22 23 194
22 24 137
22 25 29
22 26 0
22 27 162
22 28 0
22 29 126
22 30 125
22 31 81
22 32 228
22 33 60
22 34 118
22 35 203
22 36 109
22 37 118
22 38 17
22 39 149
22 40 166
22 41 78
22 42 34
22 43 233
22 44 241
22 45 146
22 46 77
22 47 93
22 48 184
22 49 201
22 50 210
22 51 84
22 52 13
22 53 234
22 54 140
22 55 192
22 56 119
22 57 216
22 58 50
22 59 63
22 60 267
22 61 10
22 62 187
22 63 147
22 64 254
22 65 264
22 66 250
22 67 89
22 68 169
22 69 123
22 70 94
22 71 97
22 72 123
22 73 186
22 74 227
22 75 52
22 76 252
22 77 43
22 78 143
22 79 159
22 80 161
22 81 153
22 82 135
22 83 42
22 84 216
22 85 130
22 86 68
22 87 131
22 88 58
22 89 127
22 90 10
23 24 169
23 25 89
23 26 216
23 27 233
23 28 15
23 29 146
23 30 72
23 31 79
23 32 106
23 33 37
23 34 213
23 35 250
23 36 107
23 37 265
23 38 232
23 39 229
23 40 30
23 41 264
23 42 21
23 43 269
23 44 19
23 45 187
23 46 144
23 47 77
23 48 65
23 49 105
23 50 41
23 51 66
23 52 29
23 53 158
23 54 87
23 55 221
23 56 204
23 57 224
23 58 14
23 59 90
23 60 239
23 61 181
23 62 70
23 63 201
23 64 235
23 65 183
23 66 261
23 67 84
23 68 8
23 69 18
23 70 126
23 71 89
23 72 29
23 73 259
23 74 28
23 75 129
23 76 265
23 77 33
23 78 85
23 79 255
23 80 39
23 81 105
23 82 125
23 83 133
23 84 245
23 85 177
23 86 221
23 87 45
23 88 46
23 89 23
23 90 123
24 25 254
24 26 35
24 27 98
24 28 108
24 29 57
24 30 205
24 31 207
24 32 231
24 33 9
24 34 146
24 35 189
24 36 81
24 37 193
24 38 181
24 39 86
24 40 26
24 41 218
24 42 241
24 43 241
24 44 127
24 45 84
24 46 72
24 47 257
24 48 159
24 49 3
24 50 41
24 51 214
24 52 164
24 53 72
24 54 198
24 55 116
24 56 148
24 57 57
24 58 259
24 59 173
24 60 218
24 61 202
24 62 239
24 63 256
24 64 176
24 65 2
24 66 257
24 67 164
24 68 197
24 69 114
24 70 139
24 71 86
24 72 119
24 73 178
24 74 111
24 75 90
24 76 135
24 77 5
24 78 49
24 79 138
24 80 196
24 81 228
24 82 244
24 83 157
24 84 264
24 85 101
24 86 61
24 87 55
24 88 256
24 89 59
24 90 204
25 26 227
25 27 184
25 28 158
25 29 82
25 30 140
25 31 177
25 32 144
25 33 143
25 34 104
25 35 71
25 36 53
25 37 197
25 38 178
25 39 150
25 40 52
25 41 25
25 42 236
25 43 23
25 44 120
25 45 137
25 46 196
25 47 213
25 48 239
25 49 186
25 50 181
25 51 222
25 52 223
25 53 187
25 54 233
25 55 132
25 56 21
25 57 38
25 58 242
25 59 120
25 60 109
25 61 215
25 62 94
25 63 0
25 64 187
25 65 260
25 66 233
25 67 34
25 68 124
25 69 88
25 70 175
25 71 3
25 72 179
25 73 75
25 74 73
25 75 229
25 76 231
25 77 20
25 78 77
25 79 198
25 80 45
25 81 156
25 82 211
25 83 258
25 84 98
25 85 32
25 86 200
25 87 221
25 88 14
25 89 97
25 90 225
26 27 152
26 28 159
26 29 230
26 30 120
26 31 157
26 32 195
26 33 126
26 34 23
26 35 123
26 36 73
26 37 26
26 38 269
26 39 223
26 40 238
26 41 151
26 42 152
26 43 221
26 44 233
26 45 90
26 46 24
26 47 256
26 48 94
26 49 47
26 50 79
26 51 223
26 52 179
26 53 263
26 54 200
26 55 117
26 56 30
26 57 1
26 58 162
26 59 144
26 60 32
26 61 107
26 62 146
26 63 158
26 64 47
26 65 164
26 66 163
26 67 231
26 68 70
26 69 166
26 70 122
26 71 235
26 72 244
26 73 175
26 74 170
26 75 172
26 76 253
26 77 20
26 78 185
26 79 205
26 80 88
26 81 6
26 82 155
26 83 5
26 84 247
26 85 258
26 86 219
26 87 247
26 88 46
26 89 47
26 90 135
27 28 259
27 29 44
27 30 104
27 31 110
27 32 47
27 33 40
27 34 153
27 35 231
27 36 15
27 37 206
27 38 39
27 39 265
27 40 67
27 41 136
27 42 29
27 43 10
27 44 228
27 45 65
27 46 111
27 47 169
27 48 213
27 49 213
27 50 96
27 51 200
27 52 25
27 53 129
27 54 127
27 55 236
27 56 73
27 57 93
27 58 19
27 59 216
27 60 204
27 61 122
27 62 5
27 63 99
27 64 48
27 65 139
27 66 170
27 67 11
27 68 209
27 69 143
27 70 234
27 71 215
27 72 105
27 73 200
27 74 122
27 75 59
27 76 263
27 77 32
27 78 38
27 79 175
27 80 120
27 81 263
27 82 202
27 83 196
27 84 118
27 85 147
27 86 233
27 87 256
27 88 12
27 89 85
27 90 258
28 29 47
28 30 126
28 31 143
28 32 182
28 33 13
28 34 58
28 35 57
28 36 115
28 37 83
28 38 201
28 39 226
28 40 223
28 41 151
28 42 6
28 43 191
28 44 143
28 45 176
28 46 157
28 47 138
28 48 175
28 49 67
28 50 258
28 51 201
28 52 257
28 53 252
28 54 18
28 55 253
28 56 200
28 57 229
28 58 56
28 59 105
28 60 97
28 61 162
28 62 34
28 63 68
28 64 264
28 65 220
28 66 209
28 67 1
28 68 221
28 69 122
28 70 254
28 71 180
28 72 119
28 73 56
28 74 148
28 75 234
28 76 55
28 77 94
28 78 174
28 79 15
28 80 33
28 81 251
28 82 166
28 83 144
28 84 257
28 85 165
28 86 102
28 87 257
28 88 147
28 89 166
28 90 94
29 30 4
29 31 159
29 32 243
29 33 18
29 34 115
29 35 259
29 36 210
29 37 207
29 38 165
29 39 211
29 40 178
29 41 234
29 42 57
29 43 225
29 44 45
29 45 251
29 46 236
29 47 106
29 48 237
29 49 160
29 50 108
29 51 159
29 52 260
29 53 131
29 54 171
29 55 107
29 56 68
29 57 29
29 58 262
29 59 109
29 60 111
29 61 46
29 62 51
29 63 192
29 64 101
29 65 261
29 66 224
29 67 92
29 68 16
29 69 90
29 70 72
29 71 89
29 72 68
29 73 201
29 74 174
29 75 1
29 76 238
29 77 144
29 78 7
29 79 41
29 80 158
29 81 145
29 82 53
29 83 253
29 84 231
29 85 84
29 86 46
29 87 124
29 88 163
29 89 68
29 90 29
30 31 64
30 32 257
30 33 107
30 34 261
30 35 172
30 36 54
30 37 198
30 38 119
30 39 9
30 40 187
30 41 22
30 42 143
30 43 252
30 44 188
30 45 209
30 46 42
30 47 108
30 48 252
30 49 65
30 50 228
30 51 59
30 52 223
30 53 99
30 54 30
30 55 221
30 56 258
30 57 97
30 58 203
30 59 226
30 60 196
30 61 150
30 62 222
30 63 31
30 64 102
30 65 198
30 66 181
30 67 80
30 68 73
30 69 217
30 70 168
30 71 269
30 72 40
30 73 47
30 74 190
30 75 73
30 76 75
30 77 105
30 78 57
30 79 184
30 80 261
30 81 35
30 82 243
30 83 75
30 84 133
30 85 125
30 86 238
30 87 180
30 88 26
30 89 269
30 90 9
31 32 128
31 33 150
31 34 196
31 35 138
31 36 119
31 37 227
31 38 42
31 39 59
31 40 159
31 41 232
31 42 127
31 43 269
31 44 54
31 45 65
31 46 177
31 47 208
31 48 228
31 49 242
31 50 249
31 51 157
31 52 195
31 53 224
31 54 143
31 55 139
31 56 109
31 57 150
31 58 240
31 59 95
31 60 66
31 61 258
31 62 129
31 63 214
31 64 173
31 65 0
31 66 221
31 67 245
31 68 13
31 69 212
31 70 253
31 71 18
31 72 89
31 73 8
31 74 162
31 75 51
31 76 90
31 77 97
31 78 34
31 79 64
31 80 174
31 81 172
31 82 186
31 83 139
31 84 42
31 85 174
31 86 230
31 87 267
31 88 94
31 89 258
31 90 120
32 33 75
32 34 252
32 35 259
32 36 256
32 37 188
32 38 44
32 39 238
32 40 198
32 41 176
32 42 101
32 43 121
32 44 232
32 45 119
32 46 168
32 47 4
32 48 85
32 49 18
32 50 207
32 51 60
32 52 218
32 53 112
32 54 216
32 55 95
32 56 219
32 57 168
32 58 66
32 59 222
32 60 204
32 61 193
32 62 108
32 63 248
32 64 263
32 65 175
32 66 77
32 67 69
32 68 164
32 69 144
32 70 5
32 71 35
32 72 101
32 73 169
32 74 155
32 75 30
32 76 183
32 77 32
32 78 201
32 79 121
32 80 188
32 81 235
32 82 149
32 83 108
32 84 114
32 85 49
32 86 245
32 87 64
32 88 153
32 89 102
32 90 251
33 34 222
33 35 255
33 36 13
33 37 11
33 38 204
33 39 43
33 40 121
33 41 237
33 42 219
33 43 24
33 44 65
33 45 11
33 46 265
33 47 121
33 48 234
33 49 103
33 50 163
33 51 169
33 52 23
33 53 172
33 54 14
33 55 46
33 56 168
33 57 1
33 58 34
33 59 54
33 60 85
33 61 231
33 62 96
33 63 173
33 64 218
33 65 129
33 66 236
33 67 239
33 68 153
33 69 210
33 70 121
33 71 112
33 72 98
33 73 243
33 74 214
33 75 155
33 76 121
33 77 242
33 78 239
33 79 231
33 80 259
33 81 118
33 82 259
33 83 103
33 84 147
33 85 120
33 86 254
33 87 36
33 88 2
33 89 101
33 90 115
34 35 190
34 36 48
34 37 195
34 38 261
34 39 112
34 40 8
34 41 199
34 42 41
34 43 225
34 44 23
34 45 129
34 46 88
34 47 82
34 48 113
34 49 18
34 50 32
34 51 101
34 52 78
34 53 70
34 54 92
34 55 84
34 56 235
34 57 43
34 58 227
34 59 251
34 60 67
34 61 39
34 62 49
34 63 248
34 64 88
34 65 200
34 66 179
34 67 171
34 68 25
34 69 223
34 70 206
34 71 221
34 72 98
34 73 204
34 74 126
34 75 202
34 76 250
34 77 181
34 78 10
34 79 256
34 80 76
34 81 91
34 82 162
34 83 241
34 84 249
34 85 231
34 86 109
34 87 160
34 88 118
34 89 248
34 90 19
35 36 145
35 37 51
35 38 242
35 39 126
35 40 17
35 41 132
35 42 194
35 43 13
35 44 155
35 45 121
35 46 208
35 47 63
35 48 37
35 49 39
35 50 173
35 51 239
35 52 6
35 53 71
35 54 235
35 55 226
35 56 200
35 57 54
35 58 20
35 59 111
35 60 120
35 61 116
35 62 100
35 63 262
35 64 42
35 65 133
35 66 39
35 67 16
35 68 61
35 69 201
35 70 190
35 71 191
35 72 53
35 73 173
35 74 222
35 75 221
35 76 92
35 77 138
35 78 172
35 79 35
35 80 51
35 81 175
35 82 45
35 83 154
35 84 132
35 85 78
35 86 56
35 87 173
35 88 55
35 89 60
35 90 269
36 37 167
36 38 41
36 39 203
36 40 225
36 41 148
36 42 40
36 43 90
36 44 141
36 45 227
36 46 3
36 47 188
36 48 84
36 49 173
36 50 174
36 51 165
36 52 153
36 53 62
36 54 47
36 55 95
36 56 70
36 57 91
36 58 161
36 59 46
36 60 189
36 61 122
36 62 258
36 63 199
36 64 176
36 65 157
36 66 39
36 67 231
36 68 15
36 69 75
36 70 269
36 71 258
36 72 7
36 73 252
36 74 205
36 75 0
36 76 247
36 77 115
36 78 134
36 79 116
36 80 186
36 81 130
36 82 6
36 83 157
36 84 228
36 85 64
36 86 259
36 87 219
36 88 110
36 89 94
36 90 268
37 38 34
37 39 262
37 40 191
37 41 97
37 42 263
37 43 182
37 44 142
37 45 226
37 46 70
37 47 253
37 48 123
37 49 227
37 50 222
37 51 210
37 52 207
37 53 14
37 54 246
37 55 184
37 56 189
37 57 73
37 58 160
37 59 75
37 60 209
37 61 93
37 62 121
37 63 232
37 64 161
37 65 139
37 66 258
37 67 111
37 68 12
37 69 265
37 70 197
37 71 162
37 72 168
37 73 66
37 74 199
37 75 172
37 76 11
37 77 174
37 78 131
37 79 37
37 80 53
37 81 16
37 82 20
37 83 79
37 84 159
37 85 96
37 86 157
37 87 41
37 88 100
37 89 74
37 90 89
38 39 214
38 40 241
38 41 103
38 42 125
38 43 241
38 44 167
38 45 196
38 46 12
38 47 139
38 48 125
38 49 119
38 50 120
38 51 193
38 52 118
38 53 13
38 54 78
38 55 175
38 56 39
38 57 206
38 58 227
38 59 235
38 60 178
38 61 93
38 62 75
38 63 110
38 64 180
38 65 76
38 66 100
38 67 243
38 68 265
38 69 107
38 70 233
38 71 241
38 72 165
38 73 141
38 74 111
38 75 51
38 76 165
38 77 154
38 78 229
38 79 93
38 80 142
38 81 259
38 82 210
38 83 190
38 84 10
38 85 2
38 86 59
38 87 63
38 88 150
38 89 256
38 90 170
39 40 263
39 41 165
39 42 51
39 43 253
39 44 70
39 45 25
39 46 247
39 47 65
39 48 184
39 49 169
39 50 185
39 51 162
39 52 134
39 53 257
39 54 10
39 55 111
39 56 62
39 57 42
39 58 182
39 59 154
39 60 80
39 61 203
39 62 224
39 63 256
39 64 215
39 65 27
39 66 141
39 67 98
39 68 68
39 69 101
39 70 247
39 71 102
39 72 187
39 73 140
39 74 75
39 75 249
39 76 266
39 77 38
39 78 126
39 79 142
39 80 136
39 81 2
39 82 198
39 83 77
39 84 173
39 85 188
39 86 201
39 87 219
39 88 266
39 89 212
39 90 155
40 41 104
40 42 99
40 43 119
40 44 129
40 45 185
40 46 41
40 47 11
40 48 236
40 49 263
40 50 231
40 51 16
40 52 264
40 53 34
40 54 72
40 55 41
40 56 216
40 57 202
40 58 110
40 59 37
40 60 66
40 61 168
40 62 172
40 63 155
40 64 56
40 65 11
40 66 234
40 67 45
40 68 245
40 69 112
40 70 264
40 71 96
40 72 60
40 73 86
40 74 76
40 75 138
40 76 72
40 77 239
40 78 66
40 79 241
40 80 218
40 81 4
40 82 54
40 83 230
40 84 72
40 85 24
40 86 191
40 87 18
40 88 127
40 89 78
40 90 245
41 42 170
41 43 66
41 44 172
41 45 87
41 46 222
41 47 163
41 48 96
41 49 118
41 50 159
41 51 75
41 52 255
41 53 90
41 54 7
41 55 7
41 56 241
41 57 151
41 58 197
41 59 252
41 60 178
41 61 184
41 62 166
41 63 160
41 64 131
41 65 164
41 66 37
41 67 206
41 68 105
41 69 37
41 70 106
41 71 105
41 72 96
41 73 135
41 74 240
41 75 237
41 76 169
41 77 92
41 78 247
41 79 49
41 80 228
41 81 222
41 82 215
41 83 100
41 84 162
41 85 213
41 86 240
41 87 24
41 88 118
41 89 125
41 90 186
42 43 156
42 44 242
42 45 31
42 46 127
42 47 93
42 48 11
42 49 32
42 50 135
42 51 66
42 52 29
42 53 199
42 54 146
42 55 250
42 56 122
42 57 143
42 58 49
42 59 142
42 60 56
42 61 60
42 62 64
42 63 39
42 64 163
42 65 247
42 66 237
42 67 13
42 68 78
42 69 220
42 70 78
42 71 82
42 72 114
42 73 131
42 74 230
42 75 240
42 76 126
42 77 176
42 78 258
42 79 119
42 80 133
42 81 124
42 82 14
42 83 215
42 84 174
42 85 26
42 86 228
42 87 220
42 88 85
42 89 135
42 90 69
43 44 188
43 45 240
43 46 85
43 47 261
43 48 263
43 49 114
43 50 87
43 51 109
43 52 26
43 53 149
43 54 168
43 55 82
43 56 173
43 57 4
43 58 178
43 59 224
43 60 124
43 61 147
43 62 208
43 63 131
43 64 67
43 65 3
43 66 211
43 67 107
43 68 88
43 69 19
43 70 85
43 71 4
43 72 146
43 73 181
43 74 90
43 75 85
43 76 222
43 77 230
43 78 261
43 79 91
43 80 175
43 81 224
43 82 1
43 83 217
43 84 143
43 85 215
43 86 61
43 87 8
43 88 116
43 89 37
43 90 126
44 45 209
44 46 75
44 47 183
44 48 210
44 49 205
44 50 205
44 51 160
44 52 101
44 53 211
44 54 93
44 55 111
44 56 162
44 57 3
44 58 239
44 59 27
44 60 121
44 61 129
44 62 214
44 63 98
44 64 224
44 65 223
44 66 232
44 67 67
44 68 236
44 69 232
44 70 214
44 71 68
44 72 246
44 73 78
44 74 108
44 75 88
44 76 204
44 77 76
44 78 10
44 79 236
44 80 121
44 81 88
44 82 235
44 83 175
44 84 234
44 85 47
44 86 148
44 87 269
44 88 136
44 89 32
44 90 100
45 46 160
45 47 188
45 48 58
45 49 16
45 50 128
45 51 62
45 52 138
45 53 204
45 54 21
45 55 208
45 56 113
45 57 98
45 58 42
45 59 266
45 60 265
45 61 35
45 62 221
45 63 231
45 64 239
45 65 10
45 66 144
45 67 206
45 68 147
45 69 0
45 70 187
45 71 97
45 72 2
45 73 42
45 74 123
45 75 32
45 76 194
45 77 181
45 78 20
45 79 189
45 80 42
45 81 71
45 82 177
45 83 10
45 84 122
45 85 18
45 86 230
45 87 240
45 88 106
45 89 133
45 90 107
46 47 255
46 48 244
46 49 16
46 50 143
46 51 247
46 52 263
46 53 54
46 54 83
46 55 98
46 56 243
46 57 77
46 58 64
46 59 200
46 60 168
46 61 200
46 62 101
46 63 145
46 64 254
46 65 143
46 66 180
46 67 189
46 68 133
46 69 239
46 70 104
46 71 5
46 72 173
46 73 137
46 74 65
46 75 1
46 76 145
46 77 25
46 78 77
46 79 257
46 80 80
46 81 34
46 82 244
46 83 94
46 84 153
46 85 265
46 86 93
46 87 190
46 88 19
46 89 29
46 90 245
47 48 202
47 49 125
47 50 34
47 51 128
47 52 201
47 53 126
47 54 200
47 55 251
47 56 88
47 57 74
47 58 116
47 59 116
47 60 131
47 61 178
47 62 214
47 63 147
47 64 172
47 65 238
47 66 79
47 67 229
47 68 87
47 69 99
47 70 148
47 71 238
47 72 160
47 73 122
47 74 120
47 75 199
47 76 30
47 77 119
47 78 241
47 79 147
47 80 34
47 81 113
47 82 188
47 83 137
47 84 34
47 85 5
47 86 39
47 87 173
47 88 50
47 89 105
47 90 69
48 49 146
48 50 206
48 51 33
48 52 11
48 53 163
48 54 128
48 55 196
48 56 242
48 57 21
48 58 35
48 59 208
48 60 220
48 61 112
48 62 15
48 63 269
48 64 26
48 65 185
48 66 155
48 67 110
48 68 74
48 69 100
48 70 99
48 71 222
48 72 243
48 73 101
48 74 225
48 75 166
48 76 185
48 77 71
48 78 184
48 79 187
48 80 16
48 81 25
48 82 244
48 83 66
48 84 189
48 85 201
48 86 95
48 87 201
48 88 240
48 89 159
48 90 186
49 50 32
49 51 104
49 52 69
49 53 2
49 54 267
49 55 180
49 56 262
49 57 183
49 58 140
49 59 39
49 60 129
49 61 169
49 62 268
49 63 35
49 64 107
49 65 135
49 66 74
49 67 170
49 68 187
49 69 40
49 70 87
49 71 267
49 72 73
49 73 32
49 74 173
49 75 227
49 76 18
49 77 140
49 78 264
49 79 229
49 80 14
49 81 90
49 82 131
49 83 122
49 84 205
49 85 94
49 86 114
49 87 183
49 88 116
49 89 250
49 90 189
50 51 111
50 52 105
50 53 218
50 54 77
50 55 128
50 56 249
50 57 58
50 58 106
50 59 160
50 60 240
50 61 21
50 62 34
50 63 35
50 64 156
50 65 160
50 66 115
50 67 10
50 68 207
50 69 186
50 70 57
50 71 112
50 72 131
50 73 232
50 74 152
50 75 116
50 76 168
50 77 210
50 78 223
50 79 33
50 80 141
50 81 89
50 82 255
50 83 86
50 84 255
50 85 186
50 86 40
50 87 161
50 88 162
50 89 134
50 90 1
51 52 25
51 53 269
51 54 125
51 55 63
51 56 201
51 57 122
51 58 179
51 59 33
51 60 6
51 61 233
51 62 138
51 63 18
51 64 49
51 65 70
51 66 78
51 67 247
51 68 157
51 69 76
51 70 160
51 71 132
51 72 168
51 73 42
51 74 93
51 75 72
51 76 54
51 77 269
51 78 173
51 79 14
51 80 55
51 81 164
51 82 8
51 83 166
51 84 247
51 85 257
51 86 147
51 87 114
51 88 209
51 89 249
51 90 151
52 53 44
52 54 136
52 55 103
52 56 77
52 57 152
52 58 264
52 59 96
52 60 268
52 61 103
52 62 71
52 63 59
52 64 173
52 65 124
52 66 251
52 67 71
52 68 235
52 69 49
52 70 10
52 71 100
52 72 203
52 73 269
52 74 206
52 75 189
52 76 156
52 77 83
52 78 249
52 79 155
52 80 136
52 81 53
52 82 73
52 83 91
52 84 63
52 85 38
52 86 224
52 87 110
52 88 68
52 89 49
52 90 190
53 54 213
53 55 210
53 56 148
53 57 8
53 58 74
53 59 133
53 60 58
53 61 26
53 62 137
53 63 202
53 64 264
53 65 259
53 66 224
53 67 111
53 68 212
53 69 46
53 70 242
53 71 2
53 72 192
53 73 108
53 74 105
53 75 256
53 76 240
53 77 172
53 78 195
53 79 67
53 80 16
53 81 237
53 82 24
53 83 85
53 84 83
53 85 127
53 86 4
53 87 6
53 88 92
53 89 141
53 90 59
54 55 102
54 56 128
54 57 207
54 58 64
54 59 62
54 60 242
54 61 199
54 62 245
54 63 259
54 64 224
54 65 4
54 66 81
54 67 106
54 68 122
54 69 149
54 70 202
54 71 236
54 72 117
54 73 180
54 74 187
54 75 162
54 76 116
54 77 18
54 78 226
54 79 78
54 80 34
54 81 20
54 82 92
54 83 119
54 84 229
54 85 207
54 86 144
54 87 63
54 88 8
54 89 12
54 90 82
55 56 208
55 57 199
55 58 68
55 59 92
55 60 103
55 61 240
55 62 54
55 63 72
55 64 215
55 65 254
55 66 234
55 67 178
55 68 133
55 69 5
55 70 104
55 71 192
55 72 262
55 73 203
55 74 100
55 75 83
55 76 142
55 77 77
55 78 241
55 79 108
55 80 171
55 81 83
55 82 34
55 83 71
55 84 45
55 85 204
55 86 5
55 87 164
55 88 117
55 89 61
55 90 78
56 57 67
56 58 62
56 59 186
56 60 77
56 61 217
56 62 258
56 63 238
56 64 164
56 65 51
56 66 260
56 67 69
56 68 140
56 69 130
56 70 264
56 71 200
56 72 256
56 73 208
56 74 198
56 75 133
56 76 34
56 77 229
56 78 188
56 79 264
56 80 104
56 81 189
56 82 19
56 83 99
56 84 56
56 85 78
56 86 226
56 87 268
56 88 257
56 89 167
56 90 247
57 58 36
57 59 131
57 60 49
57 61 99
57 62 119
57 63 75
57 64 2
57 65 195
57 66 23
57 67 17
57 68 48
57 69 133
57 70 44
57 71 262
57 72 17
57 73 73
57 74 5
57 75 51
57 76 132
57 77 53
57 78 131
57 79 94
57 80 168
57 81 250
57 82 42
57 83 115
57 84 175
57 85 197
57 86 214
57 87 210
57 88 221
57 89 140
57 90 165
58 59 31
58 60 269
58 61 182
58 62 231
58 63 88
58 64 246
58 65 127
58 66 196
58 67 155
58 68 267
58 69 180
58 70 25
58 71 253
58 72 255
58 73 71
58 74 248
58 75 9
58 76 204
58 77 43
58 78 104
58 79 175
58 80 7
58 81 111
58 82 171
58 83 47
58 84 226
58 85 133
58 86 119
58 87 73
58 88 227
58 89 232
58 90 111
59 60 222
59 61 105
59 62 266
59 63 201
59 64 258
59 65 136
59 66 132
59 67 15
59 68 97
59 69 5
59 70 259
59 71 176
59 72 102
59 73 225
59 74 209
59 75 265
59 76 107
59 77 107
59 78 246
59 79 217
59 80 53
59 81 5
59 82 195
59 83 65
59 84 77
59 85 75
59 86 196
59 87 16
59 88 224
59 89 175
59 90 3
60 61 45
60 62 250
60 63 230
60 64 17
60 65 76
60 66 106
60 67 109
60 68 149
60 69 23
60 70 104
60 71 80
60 72 92
60 73 136
60 74 130
60 75 269
60 76 266
60 77 205
60 78 259
60 79 85
60 80 197
60 81 152
60 82 72
60 83 197
60 84 202
60 85 149
60 86 51
60 87 44
60 88 196
60 89 165
60 90 88
61 62 185
61 63 255
61 64 227
61 65 208
61 66 156
61 67 257
61 68 49
61 69 14
61 70 166
61 71 73
61 72 107
61 73 210
61 74 249
61 75 39
61 76 219
61 77 90
61 78 90
61 79 53
61 80 104
61 81 188
61 82 186
61 83 22
61 84 50
61 85 226
61 86 113
61 87 249
61 88 89
61 89 231
61 90 217
62 63 6
62 64 57
62 65 119
62 66 245
62 67 183
62 68 151
62 69 224
62 70 198
62 71 93
62 72 77
62 73 58
62 74 240
62 75 110
62 76 210
62 77 257
62 78 160
62 79 213
62 80 32
62 81 106
62 82 244
62 83 247
62 84 222
62 85 255
62 86 219
62 87 223
62 88 168
62 89 156
62 90 210
63 64 55
63 65 28
63 66 45
63 67 39
63 68 187
63 69 43
63 70 151
63 71 195
63 72 81
63 73 62
63 74 195
63 75 50
63 76 132
63 77 107
63 78 223
63 79 232
63 80 248
63 81 264
63 82 89
63 83 92
63 84 249
63 85 174
63 86 93
63 87 265
63 88 170
63 89 59
63 90 170
64 65 64
64 66 115
64 67 132
64 68 184
64 69 23
64 70 91
64 71 94
64 72 32
64 73 251
64 74 82
64 75 238
64 76 268
64 77 113
64 78 141
64 79 230
64 80 269
64 81 37
64 82 72
64 83 34
64 84 138
64 85 98
64 86 147
64 87 264
64 88 86
64 89 166
64 90 166
65 66 194
65 67 141
65 68 207
65 69 19
65 70 114
65 71 17
65 72 39
65 73 23
65 74 89
65 75 124
65 76 262
65 77 34
65 78 54
65 79 261
65 80 216
65 81 175
65 82 4
65 83 163
65 84 85
65 85 38
65 86 267
65 87 268
65 88 20
65 89 45
65 90 157
66 67 73
66 68 267
66 69 20
66 70 248
66 71 185
66 72 54
66 73 195
66 74 85
66 75 123
66 76 116
66 77 252
66 78 127
66 79 193
66 80 226
66 81 5
66 82 30
66 83 160
66 84 160
66 85 196
66 86 263
66 87 71
66 88 243
66 89 264
66 90 268
67 68 216
67 69 26
67 70 164
67 71 118
67 72 197
67 73 34
67 74 249
67 75 118
67 76 136
67 77 153
67 78 190
67 79 31
67 80 190
67 81 154
67 82 147
67 83 85
67 84 226
67 85 136
67 86 29
67 87 94
67 88 48
67 89 146
67 90 28
68 69 191
68 70 160
68 71 57
68 72 83
68 73 26
68 74 4
68 75 38
68 76 52
68 77 93
68 78 187
68 79 160
68 80 91
68 81 232
68 82 153
68 83 214
68 84 221
68 85 232
68 86 17
68 87 233
68 88 34
68 89 160
68 90 48
69 70 162
69 71 208
69 72 132
69 73 39
69 74 104
69 75 218
69 76 251
69 77 57
69 78 3
69 79 100
69 80 64
69 81 232
69 82 42
69 83 112
69 84 255
69 85 152
69 86 213
69 87 52
69 88 170
69 89 259
69 90 164
70 71 225
70 72 198
70 73 14
70 74 112
70 75 54
70 76 239
70 77 5
70 78 132
70 79 18
70 80 229
70 81 45
70 82 177
70 83 244
70 84 27
70 85 222
70 86 145
70 87 48
70 88 145
70 89 212
70 90 93
71 72 66
71 73 157
71 74 73
71 75 65
71 76 224
71 77 38
71 78 158
71 79 175
71 80 112
71 81 61
71 82 60
71 83 190
71 84 28
71 85 266
71 86 236
71 87 196
71 88 201
71 89 185
71 90 247
72 73 193
72 74 125
72 75 51
72 76 213
72 77 112
72 78 21
72 79 269
72 80 216
72 81 55
72 82 122
72 83 133
72 84 159
72 85 232
72 86 185
72 87 256
72 88 243
72 89 175
72 90 127
73 74 244
73 75 111
73 76 202
73 77 241
73 78 71
73 79 38
73 80 233
73 81 10
73 82 150
73 83 227
73 84 170
73 85 213
73 86 198
73 87 131
73 88 142
73 89 155
73 90 40
74 75 219
74 76 181
74 77 112
74 78 258
74 79 33
74 80 217
74 81 85
74 82 56
74 83 204
74 84 72
74 85 63
74 86 71
74 87 73
74 88 207
74 89 111
74 90 102
75 76 183
75 77 173
75 78 110
75 79 76
75 80 29
75 81 256
75 82 71
75 83 8
75 84 11
75 85 195
75 86 24
75 87 95
75 88 250
75 89 266
75 90 226
76 77 57
76 78 179
76 79 114
76 80 192
76 81 81
76 82 117
76 83 138
76 84 137
76 85 215
76 86 171
76 87 169
76 88 210
76 89 247
76 90 225
77 78 34
77 79 187
77 80 45
77 81 11
77 82 154
77 83 269
77 84 110
77 85 196
77 86 48
77 87 221
77 88 58
77 89 138
77 90 43
78 79 137
78 80 85
78 81 189
78 82 256
78 83 110
78 84 162
78 85 202
78 86 103
78 87 194
78 88 51
78 89 189
78 90 171
79 80 168
79 81 29
79 82 33
79 83 149
79 84 200
79 85 225
79 86 61
79 87 196
79 88 102
79 89 252
79 90 206
80 81 166
80 82 200
80 83 184
80 84 126
80 85 179
80 86 76
80 87 50
80 88 185
80 89 178
80 90 181
81 82 0
81 83 59
81 84 54
81 85 219
81 86 208
81 87 221
81 88 156
81 89 148
81 90 100
82 83 72
82 84 15
82 85 216
82 86 11
82 87 80
82 88 113
82 89 209
82 90 158
83 84 70
83 85 256
83 86 92
83 87 105
83 88 88
83 89 247
83 90 49
84 85 158
84 86 238
84 87 38
84 88 84
84 89 113
84 90 173
85 86 8
85 87 48
85 88 89
85 89 100
85 90 187
86 87 192
86 88 94
86 89 54
86 90 189
87 88 92
87 89 29
87 90 102
88 89 89
88 90 3
89 90 150
